KPOINTS created by Atomic Simulation Environment
0
Gamma
2 3 4
0 0 0
