Co Mn Ni Fe Cr
 1.0000000000000000
    12.7279220613578552    0.0000000000000000    0.0000000000000000
     0.0000000000000000    8.8181630740194397    0.0000000000000000
     0.0000000000000000    0.0000000000000000    6.2353829072479572
 Co  Mn  Ni  Fe  Cr 
  12  12  12  12  12
Cartesian
  1.2727922061357857  0.7348469228349535  0.0000000000000000
  6.3639610306789285  0.7348469228349535  0.0000000000000000
  6.3639610306789285  5.1439284598446742  0.0000000000000000
 11.4551298552220722  5.1439284598446742  0.0000000000000000
  5.0911688245431428  1.4696938456699069  2.0784609690826530
  5.0911688245431428  5.8787753826796276  2.0784609690826530
  1.2727922061357857  8.0833161511844871  2.0784609690826530
  8.9095454429504990  8.0833161511844871  2.0784609690826530
  0.0000000000000000  0.0000000000000000  4.1569219381653060
  5.0911688245431428  4.4090815370097207  4.1569219381653060
  7.6367532368147142  4.4090815370097207  4.1569219381653060
 11.4551298552220722  6.6136223055145811  4.1569219381653060
  3.8183766184073571  0.7348469228349535  0.0000000000000000
 11.4551298552220722  0.7348469228349535  0.0000000000000000
  0.0000000000000000  2.9393876913398138  0.0000000000000000
  5.0911688245431428  2.9393876913398138  0.0000000000000000
  0.0000000000000000  7.3484692283495345  0.0000000000000000
  5.0911688245431428  7.3484692283495345  0.0000000000000000
  8.9095454429504990  3.6742346141747668  2.0784609690826530
  2.5455844122715714  0.0000000000000000  4.1569219381653060
  5.0911688245431428  0.0000000000000000  4.1569219381653060
  3.8183766184073571  2.2045407685048604  4.1569219381653060
  8.9095454429504990  2.2045407685048604  4.1569219381653060
  2.5455844122715714  4.4090815370097207  4.1569219381653060
  8.9095454429504990  0.7348469228349535  0.0000000000000000
 10.1823376490862856  2.9393876913398138  0.0000000000000000
  8.9095454429504990  5.1439284598446742  0.0000000000000000
  2.5455844122715714  7.3484692283495345  0.0000000000000000
  7.6367532368147142  7.3484692283495345  0.0000000000000000
  7.6367532368147142  1.4696938456699069  2.0784609690826530
  3.8183766184073571  3.6742346141747668  2.0784609690826530
  0.0000000000000000  5.8787753826796276  2.0784609690826530
  2.5455844122715714  5.8787753826796276  2.0784609690826530
 10.1823376490862856  5.8787753826796276  2.0784609690826530
  1.2727922061357857  2.2045407685048604  4.1569219381653060
  6.3639610306789285  2.2045407685048604  4.1569219381653060
  2.5455844122715714  2.9393876913398138  0.0000000000000000
  7.6367532368147142  2.9393876913398138  0.0000000000000000
  1.2727922061357857  5.1439284598446742  0.0000000000000000
  2.5455844122715714  1.4696938456699069  2.0784609690826530
 11.4551298552220722  3.6742346141747668  2.0784609690826530
  7.6367532368147142  5.8787753826796276  2.0784609690826530
  6.3639610306789285  8.0833161511844871  2.0784609690826530
 11.4551298552220722  8.0833161511844871  2.0784609690826530
 10.1823376490862856  0.0000000000000000  4.1569219381653060
  0.0000000000000000  4.4090815370097207  4.1569219381653060
  3.8183766184073571  6.6136223055145811  4.1569219381653060
  6.3639610306789285  6.6136223055145811  4.1569219381653060
  3.8183766184073571  5.1439284598446742  0.0000000000000000
 10.1823376490862856  7.3484692283495345  0.0000000000000000
  0.0000000000000000  1.4696938456699069  2.0784609690826530
 10.1823376490862856  1.4696938456699069  2.0784609690826530
  1.2727922061357857  3.6742346141747668  2.0784609690826530
  6.3639610306789285  3.6742346141747668  2.0784609690826530
  3.8183766184073571  8.0833161511844871  2.0784609690826530
  7.6367532368147142  0.0000000000000000  4.1569219381653060
 11.4551298552220722  2.2045407685048604  4.1569219381653060
 10.1823376490862856  4.4090815370097207  4.1569219381653060
  1.2727922061357857  6.6136223055145811  4.1569219381653060
  8.9095454429504990  6.6136223055145811  4.1569219381653060
